p cnf 12 22
-12 -10 9 0
12 -10 2 0
12 9 -3 0
-12 7 1 0
-12 6 -3 0
-12 -6 2 0
-11 -10 4 0
11 9 8 0
-11 9 1 0
-11 -6 -2 0
11 -6 -2 0
-10 -9 7 0
10 -7 -6 0
9 -8 -5 0
-9 7 -6 0
-9 6 5 0
-9 6 1 0
8 7 2 0
-7 4 1 0
6 5 4 0
6 3 -2 0
5 -4 2 0
